68944
53 23 388
23 17 619
17 21 638
21 34 906
34 54 401
54 47 491
47 29 1968
29 22 544
22 10 117
10 16 734
16 39 451
39 15 485
15 46 658
46 36 402
36 52 1309
52 2 598
2 14 433
14 45 1218
45 11 436
11 25 545
25 42 1886
42 31 2058
31 27 4460
27 1 4123
1 33 7621
33 9 6975
9 12 723
12 18 768
18 4 606
4 30 380
30 48 2726
48 19 897
19 49 934
49 26 560
26 55 397
55 28 487
28 6 404
6 3 385
3 43 1096
43 13 790
13 41 686
41 51 1184
51 37 590
37 5 467
5 35 323
35 7 1154
7 20 846
20 40 2011
40 50 2770
50 24 868
24 32 1089
32 44 676
44 8 383
8 38 368
38 53 3910
